problems/csplib-prob056/params/sonet-50-25-18-3607.param
language Essence 1.3
letting nnodes be 50
letting nrings be 25
letting capacity be 18
letting demand be 
{{1, 2},
{1, 3},
{1, 7},
{1, 8},
{1, 9},
{1, 11},
{1, 13},
{1, 14},
{1, 15},
{1, 16},
{1, 19},
{1, 21},
{1, 23},
{1, 25},
{1, 26},
{1, 29},
{1, 30},
{1, 31},
{1, 32},
{1, 33},
{1, 34},
{1, 35},
{1, 36},
{1, 37},
{1, 38},
{1, 40},
{1, 43},
{1, 44},
{1, 45},
{1, 46},
{1, 47},
{1, 48},
{1, 49},
{2, 3},
{2, 4},
{2, 11},
{2, 13},
{2, 15},
{2, 16},
{2, 19},
{2, 20},
{2, 21},
{2, 24},
{2, 29},
{2, 32},
{2, 33},
{2, 35},
{2, 36},
{2, 43},
{2, 48},
{2, 49},
{2, 50},
{3, 4},
{3, 6},
{3, 8},
{3, 9},
{3, 10},
{3, 13},
{3, 15},
{3, 17},
{3, 18},
{3, 23},
{3, 25},
{3, 27},
{3, 30},
{3, 31},
{3, 33},
{3, 45},
{3, 46},
{3, 47},
{4, 5},
{4, 7},
{4, 8},
{4, 12},
{4, 15},
{4, 16},
{4, 19},
{4, 22},
{4, 23},
{4, 28},
{4, 29},
{4, 31},
{4, 32},
{4, 33},
{4, 34},
{4, 35},
{4, 38},
{4, 39},
{4, 40},
{4, 41},
{4, 42},
{4, 43},
{4, 45},
{4, 46},
{4, 47},
{4, 48},
{4, 49},
{4, 50},
{5, 7},
{5, 10},
{5, 16},
{5, 17},
{5, 22},
{5, 23},
{5, 27},
{5, 28},
{5, 29},
{5, 31},
{5, 32},
{5, 37},
{5, 38},
{5, 40},
{5, 42},
{5, 43},
{5, 44},
{5, 45},
{5, 48},
{5, 49},
{6, 7},
{6, 10},
{6, 12},
{6, 14},
{6, 16},
{6, 17},
{6, 20},
{6, 22},
{6, 23},
{6, 24},
{6, 25},
{6, 33},
{6, 34},
{6, 35},
{6, 36},
{6, 37},
{6, 38},
{6, 42},
{6, 47},
{6, 50},
{7, 8},
{7, 9},
{7, 10},
{7, 11},
{7, 13},
{7, 14},
{7, 17},
{7, 18},
{7, 20},
{7, 21},
{7, 24},
{7, 25},
{7, 26},
{7, 34},
{7, 35},
{7, 36},
{7, 38},
{7, 40},
{7, 43},
{7, 44},
{7, 45},
{7, 47},
{7, 48},
{8, 10},
{8, 13},
{8, 17},
{8, 18},
{8, 26},
{8, 28},
{8, 33},
{8, 38},
{8, 41},
{8, 43},
{8, 44},
{8, 45},
{8, 47},
{8, 49},
{9, 10},
{9, 12},
{9, 13},
{9, 18},
{9, 19},
{9, 20},
{9, 22},
{9, 23},
{9, 25},
{9, 26},
{9, 28},
{9, 29},
{9, 33},
{9, 35},
{9, 36},
{9, 37},
{9, 38},
{9, 40},
{9, 46},
{9, 50},
{10, 11},
{10, 16},
{10, 18},
{10, 20},
{10, 21},
{10, 22},
{10, 23},
{10, 24},
{10, 26},
{10, 29},
{10, 31},
{10, 32},
{10, 33},
{10, 34},
{10, 36},
{10, 38},
{10, 40},
{10, 43},
{10, 46},
{10, 48},
{10, 49},
{11, 12},
{11, 16},
{11, 17},
{11, 18},
{11, 20},
{11, 22},
{11, 25},
{11, 26},
{11, 27},
{11, 30},
{11, 32},
{11, 33},
{11, 34},
{11, 38},
{11, 39},
{11, 43},
{11, 46},
{11, 47},
{11, 50},
{12, 16},
{12, 20},
{12, 21},
{12, 22},
{12, 25},
{12, 26},
{12, 29},
{12, 31},
{12, 32},
{12, 33},
{12, 35},
{12, 36},
{12, 37},
{12, 38},
{12, 40},
{12, 45},
{12, 46},
{12, 49},
{12, 50},
{13, 18},
{13, 19},
{13, 23},
{13, 24},
{13, 25},
{13, 27},
{13, 28},
{13, 29},
{13, 30},
{13, 33},
{13, 34},
{13, 35},
{13, 37},
{13, 38},
{13, 40},
{13, 41},
{13, 42},
{13, 43},
{13, 46},
{13, 47},
{13, 48},
{13, 49},
{13, 50},
{14, 17},
{14, 18},
{14, 23},
{14, 24},
{14, 25},
{14, 26},
{14, 28},
{14, 30},
{14, 32},
{14, 36},
{14, 37},
{14, 40},
{14, 41},
{14, 46},
{14, 47},
{14, 48},
{14, 50},
{15, 16},
{15, 17},
{15, 18},
{15, 20},
{15, 23},
{15, 24},
{15, 26},
{15, 27},
{15, 29},
{15, 30},
{15, 31},
{15, 32},
{15, 33},
{15, 36},
{15, 37},
{15, 40},
{15, 43},
{15, 44},
{15, 47},
{15, 49},
{16, 17},
{16, 18},
{16, 19},
{16, 20},
{16, 21},
{16, 22},
{16, 23},
{16, 24},
{16, 27},
{16, 32},
{16, 36},
{16, 39},
{16, 40},
{16, 44},
{16, 47},
{16, 48},
{16, 50},
{17, 20},
{17, 21},
{17, 23},
{17, 25},
{17, 26},
{17, 27},
{17, 28},
{17, 30},
{17, 34},
{17, 35},
{17, 37},
{17, 38},
{17, 39},
{17, 40},
{17, 42},
{17, 44},
{17, 45},
{17, 46},
{17, 49},
{18, 20},
{18, 26},
{18, 27},
{18, 29},
{18, 30},
{18, 33},
{18, 34},
{18, 36},
{18, 37},
{18, 38},
{18, 39},
{18, 40},
{18, 41},
{18, 43},
{18, 45},
{18, 46},
{18, 47},
{18, 48},
{19, 20},
{19, 24},
{19, 25},
{19, 27},
{19, 28},
{19, 31},
{19, 32},
{19, 33},
{19, 34},
{19, 35},
{19, 36},
{19, 39},
{19, 41},
{19, 43},
{19, 46},
{19, 48},
{19, 50},
{20, 21},
{20, 22},
{20, 24},
{20, 27},
{20, 28},
{20, 29},
{20, 31},
{20, 34},
{20, 35},
{20, 39},
{20, 40},
{20, 41},
{20, 42},
{20, 43},
{21, 22},
{21, 23},
{21, 25},
{21, 26},
{21, 27},
{21, 31},
{21, 33},
{21, 34},
{21, 37},
{21, 38},
{21, 40},
{21, 42},
{21, 45},
{21, 47},
{21, 48},
{21, 50},
{22, 25},
{22, 26},
{22, 27},
{22, 31},
{22, 32},
{22, 33},
{22, 34},
{22, 36},
{22, 38},
{22, 39},
{22, 40},
{22, 41},
{22, 42},
{22, 43},
{22, 44},
{22, 45},
{22, 49},
{22, 50},
{23, 24},
{23, 26},
{23, 29},
{23, 30},
{23, 33},
{23, 34},
{23, 35},
{23, 39},
{23, 41},
{23, 45},
{23, 48},
{23, 49},
{24, 25},
{24, 28},
{24, 30},
{24, 33},
{24, 37},
{24, 46},
{24, 48},
{24, 50},
{25, 26},
{25, 27},
{25, 32},
{25, 33},
{25, 35},
{25, 37},
{25, 39},
{25, 40},
{25, 41},
{25, 42},
{25, 43},
{25, 46},
{25, 48},
{26, 27},
{26, 29},
{26, 30},
{26, 33},
{26, 34},
{26, 36},
{26, 39},
{26, 40},
{26, 41},
{26, 42},
{26, 43},
{26, 44},
{26, 45},
{26, 48},
{26, 49},
{27, 29},
{27, 35},
{27, 36},
{27, 38},
{27, 41},
{27, 42},
{27, 44},
{27, 47},
{27, 48},
{27, 49},
{28, 31},
{28, 34},
{28, 35},
{28, 37},
{28, 38},
{28, 41},
{28, 42},
{28, 46},
{28, 48},
{29, 33},
{29, 34},
{29, 35},
{29, 36},
{29, 37},
{29, 40},
{29, 41},
{29, 42},
{29, 45},
{29, 46},
{29, 47},
{29, 48},
{29, 50},
{30, 31},
{30, 34},
{30, 36},
{30, 37},
{30, 39},
{30, 41},
{30, 42},
{30, 44},
{30, 46},
{30, 47},
{30, 48},
{30, 49},
{30, 50},
{31, 34},
{31, 35},
{31, 40},
{31, 43},
{31, 44},
{31, 48},
{31, 50},
{32, 33},
{32, 34},
{32, 35},
{32, 36},
{32, 41},
{32, 42},
{32, 43},
{32, 44},
{32, 45},
{32, 46},
{32, 49},
{33, 35},
{33, 36},
{33, 37},
{33, 39},
{33, 40},
{33, 41},
{33, 42},
{33, 44},
{33, 46},
{33, 48},
{33, 49},
{34, 35},
{34, 36},
{34, 37},
{34, 38},
{34, 39},
{34, 40},
{34, 42},
{34, 43},
{34, 44},
{34, 45},
{34, 47},
{34, 48},
{35, 36},
{35, 39},
{35, 41},
{35, 44},
{35, 47},
{35, 48},
{36, 38},
{36, 41},
{36, 42},
{36, 45},
{36, 47},
{36, 48},
{37, 38},
{37, 39},
{37, 40},
{37, 41},
{37, 42},
{37, 43},
{37, 45},
{37, 49},
{38, 39},
{38, 40},
{38, 41},
{38, 43},
{38, 44},
{38, 46},
{38, 47},
{38, 48},
{39, 42},
{39, 43},
{39, 45},
{39, 46},
{39, 48},
{40, 41},
{40, 42},
{40, 43},
{40, 45},
{40, 46},
{40, 48},
{40, 49},
{40, 50},
{41, 46},
{41, 47},
{41, 48},
{41, 50},
{42, 43},
{42, 45},
{42, 48},
{42, 50},
{43, 46},
{43, 48},
{43, 49},
{44, 45},
{44, 46},
{44, 49},
{44, 50},
{45, 46},
{45, 47},
{45, 48},
{45, 49},
{45, 50},
{46, 47},
{46, 48},
{46, 50},
{47, 48},
{47, 49},
{47, 50},
{48, 50},
{49, 50}}
